
Welcome to IBM(R) ILOG(R) CPLEX(R) Interactive Optimizer 22.1.1.0
  with Simplex, Mixed Integer & Barrier Optimizers
5725-A06 5725-A29 5724-Y48 5724-Y49 5724-Y54 5724-Y55 5655-Y21
Copyright IBM Corp. 1988, 2022.  All Rights Reserved.

Type 'help' for a list of available commands.
Type 'help' followed by a command name for more
information on commands.

CPLEX> Selected objective sense:  MINIMIZE
Selected objective  name:  00000000
Selected RHS        name:  RHS1
Selected bound      name:  BOUND
Problem 'ee.mps' read.
Read time = 0.03 sec. (3.17 ticks)
CPLEX> New value for time limit in seconds: 7200
CPLEX> New value for parallel optimization mode: -1
CPLEX> New value for default parallel thread count: 40
CPLEX> New value for mixed integer optimality gap tolerance: 1e-13
CPLEX> Version identifier: 22.1.1.0 | 2022-11-28 | 9160aff4d
CPXPARAM_Threads                                 40
CPXPARAM_Parallel                                -1
CPXPARAM_TimeLimit                               7200
CPXPARAM_MIP_Tolerances_MIPGap                   1e-13
Found incumbent of value 0.000000 after 0.00 sec. (0.31 ticks)
Tried aggregator 2 times.
MIP Presolve eliminated 180 rows and 2745 columns.
MIP Presolve modified 6090 coefficients.
Aggregator did 713 substitutions.
Reduced MIP has 3635 rows, 7835 columns, and 28930 nonzeros.
Reduced MIP has 7835 binaries, 0 generals, 0 SOSs, and 0 indicators.
Presolve time = 0.07 sec. (68.90 ticks)
Probing time = 0.03 sec. (5.32 ticks)
Tried aggregator 1 time.
Detecting symmetries...
Reduced MIP has 3635 rows, 7835 columns, and 28930 nonzeros.
Reduced MIP has 7835 binaries, 0 generals, 0 SOSs, and 0 indicators.
Presolve time = 0.02 sec. (22.00 ticks)
Probing time = 0.02 sec. (5.12 ticks)
Clique table members: 18781.
MIP emphasis: balance optimality and feasibility.
MIP search method: dynamic search.
Parallel mode: opportunistic, using up to 40 threads.
Root relaxation solution time = 0.09 sec. (73.90 ticks)

        Nodes                                         Cuts/
   Node  Left     Objective  IInf  Best Integer    Best Bound    ItCnt     Gap

*     0+    0                            0.0000  -1.54000e+13              --- 
*     0+    0                      -6.00000e+12  -1.54000e+13           156.67%
*     0+    0                      -7.20000e+12  -1.54000e+13           113.89%
      0     0  -1.53900e+13    33  -7.20000e+12  -1.53900e+13     2244  113.75%
*     0+    0                      -1.53900e+13  -1.53900e+13             0.00%
      0     0  -1.53900e+13    98  -1.53900e+13      Cuts: 21     2784    0.00%
*     0+    0                      -1.53900e+13  -1.53900e+13             0.00%
*     0+    0                      -1.53900e+13  -1.53900e+13             0.00%
      0     0  -1.53900e+13   126  -1.53900e+13      Cuts: 59     3157    0.00%
*     0+    0                      -1.53900e+13  -1.53900e+13             0.00%
*     0+    0                      -1.53900e+13  -1.53900e+13             0.00%

Repeating presolve.
Tried aggregator 2 times.
MIP Presolve eliminated 1019 rows and 2647 columns.
MIP Presolve modified 44 coefficients.
Aggregator did 183 substitutions.
Reduced MIP has 2433 rows, 4993 columns, and 17889 nonzeros.
Reduced MIP has 4993 binaries, 0 generals, 0 SOSs, and 0 indicators.
Presolve time = 0.05 sec. (50.00 ticks)
Probing fixed 86 vars, tightened 0 bounds.
Probing time = 0.07 sec. (23.62 ticks)
Tried aggregator 2 times.
MIP Presolve eliminated 41 rows and 113 columns.
Aggregator did 32 substitutions.
Reduced MIP has 2360 rows, 4836 columns, and 17350 nonzeros.
Reduced MIP has 4836 binaries, 0 generals, 0 SOSs, and 0 indicators.
Presolve time = 0.03 sec. (27.94 ticks)
Probing time = 0.04 sec. (9.80 ticks)
Tried aggregator 1 time.
Detecting symmetries...
MIP Presolve eliminated 6 rows and 4 columns.
Reduced MIP has 2354 rows, 4832 columns, and 17332 nonzeros.
Reduced MIP has 4832 binaries, 0 generals, 0 SOSs, and 0 indicators.
Presolve time = 0.02 sec. (19.00 ticks)
Represolve time = 0.25 sec. (155.47 ticks)
Probing time = 0.03 sec. (8.38 ticks)
Clique table members: 11562.
MIP emphasis: balance optimality and feasibility.
MIP search method: dynamic search.
Parallel mode: opportunistic, using up to 40 threads.
Root relaxation solution time = 0.07 sec. (48.07 ticks)

        Nodes                                         Cuts/
   Node  Left     Objective  IInf  Best Integer    Best Bound    ItCnt     Gap

*     0+    0                      -1.53900e+13  -1.53900e+13             0.00%
      0     0  -1.53900e+13    89  -1.53900e+13  -1.53900e+13     4581    0.00%
      0     0  -1.53900e+13    98  -1.53900e+13      Cuts: 76     4703    0.00%
      0     0  -1.53900e+13    98  -1.53900e+13      Cuts: 72     5048    0.00%
      0     2  -1.53900e+13    87  -1.53900e+13  -1.53900e+13     5048    0.00%
Elapsed time = 2.34 sec. (1557.19 ticks, tree = 0.02 MB, solutions = 8)
    924   168  -1.53900e+13   124  -1.53900e+13  -1.53900e+13    57740    0.00%
   1736   366        cutoff        -1.53900e+13  -1.53900e+13   150309    0.00%
   2307   468  -1.53900e+13    96  -1.53900e+13  -1.53900e+13   202882    0.00%
   3211   490        cutoff        -1.53900e+13  -1.53900e+13   226763    0.00%
   4376   526  -1.53900e+13   180  -1.53900e+13  -1.53900e+13   245302    0.00%
   5502   740  -1.53900e+13    25  -1.53900e+13  -1.53900e+13   357642    0.00%
   6439   831  -1.53900e+13   108  -1.53900e+13  -1.53900e+13   407822    0.00%
   7388   289        cutoff        -1.53900e+13  -1.53900e+13   931889    0.00%
   8426  1210        cutoff        -1.53900e+13  -1.53900e+13   580923    0.00%
  11612   711  -1.53900e+13   161  -1.53900e+13  -1.53900e+13   857720    0.00%
Elapsed time = 7.32 sec. (4658.60 ticks, tree = 1.08 MB, solutions = 9)

Performing restart 1

Repeating presolve.
Tried aggregator 3 times.
MIP Presolve eliminated 77 rows and 213 columns.
MIP Presolve added 4 rows and 0 columns.
MIP Presolve modified 1047 coefficients.
Aggregator did 39 substitutions.
Reduced MIP has 2242 rows, 4578 columns, and 16337 nonzeros.
Reduced MIP has 4578 binaries, 0 generals, 0 SOSs, and 0 indicators.
Presolve time = 0.06 sec. (43.62 ticks)
Tried aggregator 1 time.
MIP Presolve eliminated 1 rows and 1 columns.
Reduced MIP has 2241 rows, 4577 columns, and 16334 nonzeros.
Reduced MIP has 4577 binaries, 0 generals, 0 SOSs, and 0 indicators.
Presolve time = 0.03 sec. (19.01 ticks)
Represolve time = 0.17 sec. (99.78 ticks)
  12557     0  -1.53900e+13   196  -1.53900e+13      Cuts: 10  1015824    0.00%
  12557     0  -1.53900e+13   221  -1.53900e+13      Cuts: 17  1015881    0.00%
  12557     0  -1.53900e+13   221  -1.53900e+13  ZeroHalf: 17  1015894    0.00%
  12557     0  -1.53900e+13   234  -1.53900e+13      Cuts: 25  1016037    0.00%
  12557     0  -1.53900e+13   232  -1.53900e+13  ZeroHalf: 12  1016103    0.00%
  12557    12        cutoff        -1.53900e+13  -1.53900e+13  1020028    0.00%
  12865     4  -1.53900e+13   123  -1.53900e+13  -1.53900e+13  1016200    0.00%

GUB cover cuts applied:  2
Clique cuts applied:  15
Cover cuts applied:  298
Mixed integer rounding cuts applied:  1
Zero-half cuts applied:  18
Lift and project cuts applied:  6
Gomory fractional cuts applied:  14

Root node processing (before b&c):
  Real time             =    1.89 sec. (1555.91 ticks)
Parallel b&c, 40 threads:
  Real time             =    9.14 sec. (6402.37 ticks)
  Sync time (average)   =    2.40 sec.
  Wait time (average)   =    0.07 sec.
                          ------------
Total (root+branch&cut) =   11.02 sec. (7958.28 ticks)

Solution pool: 9 solutions saved.

MIP - Integer optimal solution:  Objective = -1.5389999889e+13
Solution time =   11.11 sec.  Iterations = 1028631  Nodes = 12878
Deterministic time = 7958.32 ticks  (716.27 ticks/sec)

CPLEX> Solution 'p10' written to file 'ee.sol'.
CPLEX> 